p cnf 16 22
5 11 16 0
-3 -7 -12 -11 0
-10 -15 -16 -3 -2 -4 -11 -14 -13 -9 0
6 -14 -3 0
-12 1 16 0
-14 -4 3 8 6 -5 -11 1 7 -2 13 0
-13 -8 4 -12 15 6 -10 0
4 -2 0
-15 14 0
-6 -3 -5 8 -1 7 -13 -9 2 -10 0
11 -12 -13 4 -16 -1 6 9 5 -10 -8 14 -3 15 -7 0
4 3 11 -9 -1 -10 -16 12 5 2 0
-11 15 13 -3 9 10 5 -6 8 -12 -16 14 -4 -2 0
-7 -3 -9 13 -12 -6 -4 11 -8 15 16 5 2 10 1 0
12 -14 0
5 -11 7 -12 -14 -6 15 16 -4 8 -13 -1 -10 9 0
2 -6 -12 -7 15 -1 8 -16 11 -4 5 -3 0
-2 4 -12 0
2 -16 -13 4 -7 -5 1 8 -14 -15 9 0
-5 -16 0
-12 -2 -11 16 -6 8 -5 -10 9 -4 1 3 -13 15 -7 -14 0
15 -7 0
